(define-fun inv2 ((x!0 Int)
 (x!1 Int)
 (x!2 Int)
 (x!3 Int)
 (x!4 Int)
 (x!5 Int)
 (x!6 Int)) Bool
  (let ((a!1 (not (<= (+ x!1 x!2 (* (- 1) x!4) (* (- 1) x!5)) (- 1))))
        (a!2 (not (<= (+ x!0 (* (- 1) x!4)) 0)))
        (a!3 (not (>= (+ x!1 (* (- 1) x!5)) 0)))
        (a!4 (not (<= (+ x!3 (* (- 1) x!4)) 1)))
        (a!5 (not (<= (+ (* 2 x!0) x!3 (* (- 3) x!4)) (- 1))))
        (a!6 (not (<= (+ x!0 (* (- 1) x!4)) (- 1))))
        (a!7 (not (>= (+ x!1 (* (- 1) x!2) x!3 (* (- 1) x!5)) 1)))
        (a!8 (not (<= (+ x!1 (* (- 1) x!2) x!3 (* (- 1) x!5)) (- 1))))
        (a!9 (not (>= (+ x!0 (* (- 1) x!2)) 1)))
        (a!10 (not (<= (+ x!0 (* (- 1) x!2)) (- 3))))
        (a!11 (not (>= (+ x!0 (* (- 1) x!3)) (- 6))))
        (a!12 (not (>= (+ x!1 x!2 (* (- 1) x!4) (* (- 1) x!5)) 1)))
        (a!13 (not (<= (+ x!0 (* (- 1) x!2)) (- 2))))
        (a!14 (not (<= (+ x!0 (* (- 1) x!1) (* (- 1) x!2) x!5) (- 1))))
        (a!15 (not (>= (+ x!0 (* (- 1) x!3)) (- 4))))
        (a!16 (not (<= (+ x!0 (* (- 1) x!2)) (- 1))))
        (a!17 (not (>= (+ x!0 (* (- 1) x!1) (* (- 1) x!2) x!5) 1))))
    (and a!1
         (or a!2 a!3)
         a!4
         a!5
         (or a!6 a!7)
         a!8
         (or a!9 a!3)
         (or a!10 a!11 a!12)
         (or a!12 a!13 a!14)
         (or a!13 a!15 a!12)
         (or a!16 a!3)
         a!17)))

